NAME: instance_1993
TYPE: TSP
DIMENSION: 20
EDGE_WEIGHT_TYPE: EUC_2D
NODE_COORD_SECTION
0 74.08 49.63
1 15.22 66.61
2 26.59 23.21
3 0.59 63.54
4 71.14 7.33
5 53.86 23.40
6 75.15 51.11
7 19.21 91.12
8 79.24 5.24
9 62.47 34.24
10 99.87 83.99
11 29.98 4.80
12 71.59 88.25
13 6.85 9.67
14 64.48 5.15
15 26.73 71.30
16 76.18 53.94
17 35.10 98.00
18 78.19 26.06
19 84.69 81.68
EOF
